(set-logic QF_NRA)
; benchmark generated from python API
(set-info :status unknown)
(declare-fun v1y () Real)
(declare-fun oy () Real)
(declare-fun v1x () Real)
(declare-fun R2 () Real)
(declare-fun y1y () Real)
(declare-fun xy () Real)
(declare-fun y1x () Real)
(declare-fun xx () Real)
(declare-fun rho2 () Real)
(declare-fun y2y () Real)
(declare-fun y2x () Real)
(declare-fun y3y () Real)
(declare-fun y3x () Real)
(declare-fun y4y () Real)
(declare-fun y4x () Real)
(assert
 (let ((?x303 (* (- 1.0) v1x)))
 (let ((?x370 (* (- 1.0) R2)))
 (let ((?x258 (+ (+ (+ (+ (/ 1.0 4.0) (* oy oy)) (* v1x v1x)) (* v1y v1y)) ?x370)))
 (= (+ (+ ?x258 ?x303) (* (* (- 2.0) oy) v1y)) 0.0)))))
(assert
 (= (+ (+ (/ 1.0 4.0) (* oy oy)) (* (- 1.0) R2)) 0.0))
(assert
 (let ((?x392 (* (- 1.0) rho2)))
 (let ((?x396 (* y1y y1y)))
 (let ((?x429 (+ (+ (+ (+ (* xx xx) (* xy xy)) (* y1x y1x)) ?x396) ?x392)))
 (= (+ (+ ?x429 (* (* (- 2.0) xx) y1x)) (* (* (- 2.0) xy) y1y)) 0.0)))))
(assert
 (let ((?x392 (* (- 1.0) rho2)))
 (let ((?x332 (* y2y y2y)))
 (let ((?x334 (+ (+ (+ (+ (* xx xx) (* xy xy)) (* y2x y2x)) ?x332) ?x392)))
 (= (+ (+ ?x334 (* (* (- 2.0) xx) y2x)) (* (* (- 2.0) xy) y2y)) 0.0)))))
(assert
 (let ((?x392 (* (- 1.0) rho2)))
 (let ((?x450 (* y3y y3y)))
 (let ((?x140 (+ (+ (+ (+ (* xx xx) (* xy xy)) (* y3x y3x)) ?x450) ?x392)))
 (= (+ (+ ?x140 (* (* (- 2.0) xx) y3x)) (* (* (- 2.0) xy) y3y)) 0.0)))))
(assert
 (let ((?x392 (* (- 1.0) rho2)))
 (let ((?x371 (* y4y y4y)))
 (let ((?x279 (+ (+ (+ (+ (* xx xx) (* xy xy)) (* y4x y4x)) ?x371) ?x392)))
 (= (+ (+ ?x279 (* (* (- 2.0) xx) y4x)) (* (* (- 2.0) xy) y4y)) 0.0)))))
(assert
 (let ((?x317 (+ (+ (+ (+ (- (/ 1.0 4.0)) R2) xx) (* (- 1.0) (* oy oy))) (* (- 1.0) (* xx xx)))))
 (>= (+ (+ ?x317 (* (- 1.0) (* xy xy))) (* (* 2.0 oy) xy)) 0.0)))
(assert
 (let ((?x312 (+ (+ (+ (+ (- (/ 1.0 4.0)) R2) y1x) (* (- 1.0) (* oy oy))) (* (- 1.0) (* y1x y1x)))))
 (>= (+ (+ ?x312 (* (- 1.0) (* y1y y1y))) (* (* 2.0 oy) y1y)) 0.0)))
(assert
 (let ((?x363 (+ (+ (+ (+ (- (/ 1.0 4.0)) R2) y2x) (* (- 1.0) (* oy oy))) (* (- 1.0) (* y2x y2x)))))
 (>= (+ (+ ?x363 (* (- 1.0) (* y2y y2y))) (* (* 2.0 oy) y2y)) 0.0)))
(assert
 (let ((?x382 (+ (+ (+ (+ (- (/ 1.0 4.0)) R2) y3x) (* (- 1.0) (* oy oy))) (* (- 1.0) (* y3x y3x)))))
 (>= (+ (+ ?x382 (* (- 1.0) (* y3y y3y))) (* (* 2.0 oy) y3y)) 0.0)))
(assert
 (let ((?x167 (+ (+ (+ (+ (- (/ 1.0 4.0)) R2) y4x) (* (- 1.0) (* oy oy))) (* (- 1.0) (* y4x y4x)))))
 (>= (+ (+ ?x167 (* (- 1.0) (* y4y y4y))) (* (* 2.0 oy) y4y)) 0.0)))
(assert
 (>= (+ (+ (* v1x v1x) (* v1y v1y)) (* (- 1.0) v1x)) 0.0))
(assert
 (>= v1x 0.0))
(assert
 (>= (+ 1.0 (* (- 1.0) v1x)) 0.0))
(assert
 (> R2 0.0))
(assert
 (> rho2 0.0))
(assert
 (let ((?x441 (* (- 1.0) v1y)))
 (let ((?x466 (* ?x441 xy)))
 (> ?x466 0.0))))
(assert
 (let ((?x211 (+ (+ (* v1y v1y) (* (* (- 1.0) v1y) xy)) (* (* (- 1.0) xx) (* v1y v1y)))))
 (> (+ ?x211 (* (* v1x v1y) xy)) 0.0)))
(assert
 (> (+ (* xx (* v1y v1y)) (* (* (* (- 1.0) v1x) v1y) xy)) 0.0))
(assert
 (let ((?x441 (* (- 1.0) v1y)))
 (let ((?x10 (* ?x441 y1y)))
 (> ?x10 0.0))))
(assert
 (let ((?x171 (+ (+ (* v1y v1y) (* (* (- 1.0) v1y) y1y)) (* (* (- 1.0) y1x) (* v1y v1y)))))
 (> (+ ?x171 (* (* v1x v1y) y1y)) 0.0)))
(assert
 (> (+ (* y1x (* v1y v1y)) (* (* (* (- 1.0) v1x) v1y) y1y)) 0.0))
(assert
 (let ((?x441 (* (- 1.0) v1y)))
 (let ((?x420 (* ?x441 y2y)))
 (> ?x420 0.0))))
(assert
 (let ((?x199 (+ (+ (* v1y v1y) (* (* (- 1.0) v1y) y2y)) (* (* (- 1.0) y2x) (* v1y v1y)))))
 (> (+ ?x199 (* (* v1x v1y) y2y)) 0.0)))
(assert
 (> (+ (* y2x (* v1y v1y)) (* (* (* (- 1.0) v1x) v1y) y2y)) 0.0))
(assert
 (let ((?x441 (* (- 1.0) v1y)))
 (let ((?x379 (* ?x441 y3y)))
 (> ?x379 0.0))))
(assert
 (let ((?x439 (+ (+ (* v1y v1y) (* (* (- 1.0) v1y) y3y)) (* (* (- 1.0) y3x) (* v1y v1y)))))
 (> (+ ?x439 (* (* v1x v1y) y3y)) 0.0)))
(assert
 (> (+ (* y3x (* v1y v1y)) (* (* (* (- 1.0) v1x) v1y) y3y)) 0.0))
(assert
 (let ((?x441 (* (- 1.0) v1y)))
 (let ((?x105 (* ?x441 y4y)))
 (> ?x105 0.0))))
(assert
 (let ((?x474 (+ (+ (* v1y v1y) (* (* (- 1.0) v1y) y4y)) (* (* (- 1.0) y4x) (* v1y v1y)))))
 (> (+ ?x474 (* (* v1x v1y) y4y)) 0.0)))
(assert
 (> (+ (* y4x (* v1y v1y)) (* (* (* (- 1.0) v1x) v1y) y4y)) 0.0))
(assert
 (> (+ (* y1x y2y) (* (* (- 1.0) y1y) y2x)) 0.0))
(assert
 (> (+ (* y1x y3y) (* (* (- 1.0) y1y) y3x)) 0.0))
(assert
 (> (+ (* y1x y4y) (* (* (- 1.0) y1y) y4x)) 0.0))
(assert
 (> (+ (* xy y1x) (* (* (- 1.0) xx) y1y)) 0.0))
(assert
 (let ((?x201 (* (- 1.0) y1y)))
 (> ?x201 0.0)))
(assert
 (> (+ (* v1y y1x) (* (* (- 1.0) v1x) y1y)) 0.0))
(assert
 (> (+ (* y2x y3y) (* (* (- 1.0) y2y) y3x)) 0.0))
(assert
 (> (+ (* y2x y4y) (* (* (- 1.0) y2y) y4x)) 0.0))
(assert
 (> (+ (* xy y2x) (* (* (- 1.0) xx) y2y)) 0.0))
(assert
 (let ((?x166 (* (- 1.0) y2y)))
 (> ?x166 0.0)))
(assert
 (> (+ (* v1y y2x) (* (* (- 1.0) v1x) y2y)) 0.0))
(assert
 (> (+ (* y3x y4y) (* (* (- 1.0) y3y) y4x)) 0.0))
(assert
 (> (+ (* xy y3x) (* (* (- 1.0) xx) y3y)) 0.0))
(assert
 (let ((?x269 (* (- 1.0) y3y)))
 (> ?x269 0.0)))
(assert
 (> (+ (* v1y y3x) (* (* (- 1.0) v1x) y3y)) 0.0))
(assert
 (> (+ (* xy y4x) (* (* (- 1.0) xx) y4y)) 0.0))
(assert
 (let ((?x75 (* (- 1.0) y4y)))
 (> ?x75 0.0)))
(assert
 (> (+ (* v1y y4x) (* (* (- 1.0) v1x) y4y)) 0.0))
(assert
 (let ((?x260 (* (- 1.0) xy)))
 (> ?x260 0.0)))
(assert
 (> (+ (* v1y xx) (* (* (- 1.0) v1x) xy)) 0.0))
(assert
 (> v1y 0.0))
(assert
 (let ((?x166 (* (- 1.0) y2y)))
 (let ((?x814 (* ?x166 y3x)))
 (let ((?x201 (* (- 1.0) y1y)))
 (let ((?x309 (* ?x201 y2x)))
 (let ((?x341 (+ (+ (+ (* y1x y2y) (* y1y y3x)) (* y2x y3y)) (* (* (- 1.0) y1x) y3y))))
 (> (+ (+ ?x341 ?x309) ?x814) 0.0)))))))
(assert
 (let ((?x166 (* (- 1.0) y2y)))
 (let ((?x237 (* ?x166 y4x)))
 (let ((?x201 (* (- 1.0) y1y)))
 (let ((?x309 (* ?x201 y2x)))
 (let ((?x366 (* (- 1.0) y1x)))
 (let ((?x91 (* ?x366 y4y)))
 (let ((?x285 (+ (+ (+ (+ (* y1x y2y) (* y1y y4x)) (* y2x y4y)) ?x91) ?x309)))
 (> (+ ?x285 ?x237) 0.0)))))))))
(assert
 (let ((?x201 (* (- 1.0) y1y)))
 (let ((?x309 (* ?x201 y2x)))
 (let ((?x260 (* (- 1.0) xy)))
 (let ((?x438 (* ?x260 y1x)))
 (let ((?x388 (* (- 1.0) xx)))
 (let ((?x139 (* ?x388 y2y)))
 (let ((?x385 (+ (+ (+ (+ (* xx y1y) (* xy y2x)) (* y1x y2y)) ?x139) ?x438)))
 (> (+ ?x385 ?x309) 0.0)))))))))
(assert
 (let ((?x201 (* (- 1.0) y1y)))
 (let ((?x309 (* ?x201 y2x)))
 (> (+ (+ (+ y1y (* (- 1.0) y2y)) (* y1x y2y)) ?x309) 0.0))))
(assert
 (let ((?x201 (* (- 1.0) y1y)))
 (let ((?x309 (* ?x201 y2x)))
 (let ((?x441 (* (- 1.0) v1y)))
 (let ((?x340 (* ?x441 y1x)))
 (let ((?x303 (* (- 1.0) v1x)))
 (let ((?x399 (* ?x303 y2y)))
 (let ((?x47 (+ (+ (+ (+ (* v1x y1y) (* v1y y2x)) (* y1x y2y)) ?x399) ?x340)))
 (> (+ ?x47 ?x309) 0.0)))))))))
(assert
 (let ((?x269 (* (- 1.0) y3y)))
 (let ((?x380 (* ?x269 y4x)))
 (let ((?x201 (* (- 1.0) y1y)))
 (let ((?x381 (* ?x201 y3x)))
 (let ((?x366 (* (- 1.0) y1x)))
 (let ((?x91 (* ?x366 y4y)))
 (let ((?x134 (+ (+ (+ (+ (* y1x y3y) (* y1y y4x)) (* y3x y4y)) ?x91) ?x381)))
 (> (+ ?x134 ?x380) 0.0)))))))))
(assert
 (let ((?x201 (* (- 1.0) y1y)))
 (let ((?x381 (* ?x201 y3x)))
 (let ((?x260 (* (- 1.0) xy)))
 (let ((?x438 (* ?x260 y1x)))
 (let ((?x388 (* (- 1.0) xx)))
 (let ((?x149 (* ?x388 y3y)))
 (let ((?x151 (+ (+ (+ (+ (* xx y1y) (* xy y3x)) (* y1x y3y)) ?x149) ?x438)))
 (> (+ ?x151 ?x381) 0.0)))))))))
(assert
 (let ((?x201 (* (- 1.0) y1y)))
 (let ((?x381 (* ?x201 y3x)))
 (> (+ (+ (+ y1y (* (- 1.0) y3y)) (* y1x y3y)) ?x381) 0.0))))
(assert
 (let ((?x201 (* (- 1.0) y1y)))
 (let ((?x381 (* ?x201 y3x)))
 (let ((?x441 (* (- 1.0) v1y)))
 (let ((?x340 (* ?x441 y1x)))
 (let ((?x303 (* (- 1.0) v1x)))
 (let ((?x148 (* ?x303 y3y)))
 (let ((?x221 (+ (+ (+ (+ (* v1x y1y) (* v1y y3x)) (* y1x y3y)) ?x148) ?x340)))
 (> (+ ?x221 ?x381) 0.0)))))))))
(assert
 (let ((?x201 (* (- 1.0) y1y)))
 (let ((?x170 (* ?x201 y4x)))
 (let ((?x260 (* (- 1.0) xy)))
 (let ((?x438 (* ?x260 y1x)))
 (let ((?x388 (* (- 1.0) xx)))
 (let ((?x283 (* ?x388 y4y)))
 (let ((?x373 (+ (+ (+ (+ (* xx y1y) (* xy y4x)) (* y1x y4y)) ?x283) ?x438)))
 (> (+ ?x373 ?x170) 0.0)))))))))
(assert
 (let ((?x201 (* (- 1.0) y1y)))
 (let ((?x170 (* ?x201 y4x)))
 (> (+ (+ (+ y1y (* (- 1.0) y4y)) (* y1x y4y)) ?x170) 0.0))))
(assert
 (let ((?x201 (* (- 1.0) y1y)))
 (let ((?x170 (* ?x201 y4x)))
 (let ((?x441 (* (- 1.0) v1y)))
 (let ((?x340 (* ?x441 y1x)))
 (let ((?x303 (* (- 1.0) v1x)))
 (let ((?x28 (* ?x303 y4y)))
 (let ((?x446 (+ (+ (+ (+ (* v1x y1y) (* v1y y4x)) (* y1x y4y)) ?x28) ?x340)))
 (> (+ ?x446 ?x170) 0.0)))))))))
(assert
 (let ((?x388 (* (- 1.0) xx)))
 (let ((?x440 (* ?x388 y1y)))
 (> (+ (+ (+ y1y (* (- 1.0) xy)) (* xy y1x)) ?x440) 0.0))))
(assert
 (let ((?x388 (* (- 1.0) xx)))
 (let ((?x440 (* ?x388 y1y)))
 (let ((?x441 (* (- 1.0) v1y)))
 (let ((?x340 (* ?x441 y1x)))
 (let ((?x303 (* (- 1.0) v1x)))
 (let ((?x482 (* ?x303 xy)))
 (let ((?x63 (+ (+ (+ (+ (* v1x y1y) (* v1y xx)) (* xy y1x)) ?x482) ?x340)))
 (> (+ ?x63 ?x440) 0.0)))))))))
(assert
 (let ((?x441 (* (- 1.0) v1y)))
 (let ((?x340 (* ?x441 y1x)))
 (> (+ (+ (+ v1y (* (- 1.0) y1y)) (* v1x y1y)) ?x340) 0.0))))
(assert
 (let ((?x269 (* (- 1.0) y3y)))
 (let ((?x380 (* ?x269 y4x)))
 (let ((?x166 (* (- 1.0) y2y)))
 (let ((?x814 (* ?x166 y3x)))
 (let ((?x278 (+ (+ (+ (* y2x y3y) (* y2y y4x)) (* y3x y4y)) (* (* (- 1.0) y2x) y4y))))
 (> (+ (+ ?x278 ?x814) ?x380) 0.0)))))))
(assert
 (let ((?x166 (* (- 1.0) y2y)))
 (let ((?x814 (* ?x166 y3x)))
 (let ((?x260 (* (- 1.0) xy)))
 (let ((?x38 (* ?x260 y2x)))
 (let ((?x388 (* (- 1.0) xx)))
 (let ((?x149 (* ?x388 y3y)))
 (let ((?x486 (+ (+ (+ (+ (* xx y2y) (* xy y3x)) (* y2x y3y)) ?x149) ?x38)))
 (> (+ ?x486 ?x814) 0.0)))))))))
(assert
 (let ((?x166 (* (- 1.0) y2y)))
 (let ((?x814 (* ?x166 y3x)))
 (> (+ (+ (+ y2y (* (- 1.0) y3y)) (* y2x y3y)) ?x814) 0.0))))
(assert
 (let ((?x166 (* (- 1.0) y2y)))
 (let ((?x814 (* ?x166 y3x)))
 (let ((?x441 (* (- 1.0) v1y)))
 (let ((?x154 (* ?x441 y2x)))
 (let ((?x303 (* (- 1.0) v1x)))
 (let ((?x148 (* ?x303 y3y)))
 (let ((?x101 (+ (+ (+ (+ (* v1x y2y) (* v1y y3x)) (* y2x y3y)) ?x148) ?x154)))
 (> (+ ?x101 ?x814) 0.0)))))))))
(assert
 (let ((?x166 (* (- 1.0) y2y)))
 (let ((?x237 (* ?x166 y4x)))
 (let ((?x260 (* (- 1.0) xy)))
 (let ((?x38 (* ?x260 y2x)))
 (let ((?x388 (* (- 1.0) xx)))
 (let ((?x283 (* ?x388 y4y)))
 (let ((?x130 (+ (+ (+ (+ (* xx y2y) (* xy y4x)) (* y2x y4y)) ?x283) ?x38)))
 (> (+ ?x130 ?x237) 0.0)))))))))
(assert
 (let ((?x166 (* (- 1.0) y2y)))
 (let ((?x237 (* ?x166 y4x)))
 (> (+ (+ (+ y2y (* (- 1.0) y4y)) (* y2x y4y)) ?x237) 0.0))))
(assert
 (let ((?x166 (* (- 1.0) y2y)))
 (let ((?x237 (* ?x166 y4x)))
 (let ((?x441 (* (- 1.0) v1y)))
 (let ((?x154 (* ?x441 y2x)))
 (let ((?x303 (* (- 1.0) v1x)))
 (let ((?x28 (* ?x303 y4y)))
 (let ((?x187 (+ (+ (+ (+ (* v1x y2y) (* v1y y4x)) (* y2x y4y)) ?x28) ?x154)))
 (> (+ ?x187 ?x237) 0.0)))))))))
(assert
 (let ((?x388 (* (- 1.0) xx)))
 (let ((?x139 (* ?x388 y2y)))
 (> (+ (+ (+ y2y (* (- 1.0) xy)) (* xy y2x)) ?x139) 0.0))))
(assert
 (let ((?x388 (* (- 1.0) xx)))
 (let ((?x139 (* ?x388 y2y)))
 (let ((?x441 (* (- 1.0) v1y)))
 (let ((?x154 (* ?x441 y2x)))
 (let ((?x303 (* (- 1.0) v1x)))
 (let ((?x482 (* ?x303 xy)))
 (let ((?x480 (+ (+ (+ (+ (* v1x y2y) (* v1y xx)) (* xy y2x)) ?x482) ?x154)))
 (> (+ ?x480 ?x139) 0.0)))))))))
(assert
 (let ((?x441 (* (- 1.0) v1y)))
 (let ((?x154 (* ?x441 y2x)))
 (> (+ (+ (+ v1y (* (- 1.0) y2y)) (* v1x y2y)) ?x154) 0.0))))
(assert
 (let ((?x269 (* (- 1.0) y3y)))
 (let ((?x380 (* ?x269 y4x)))
 (let ((?x388 (* (- 1.0) xx)))
 (let ((?x283 (* ?x388 y4y)))
 (let ((?x116 (+ (+ (+ (+ (* xx y3y) (* xy y4x)) (* y3x y4y)) ?x283) (* (* (- 1.0) xy) y3x))))
 (> (+ ?x116 ?x380) 0.0)))))))
(assert
 (let ((?x269 (* (- 1.0) y3y)))
 (let ((?x380 (* ?x269 y4x)))
 (> (+ (+ (+ y3y (* (- 1.0) y4y)) (* y3x y4y)) ?x380) 0.0))))
(assert
 (let ((?x269 (* (- 1.0) y3y)))
 (let ((?x380 (* ?x269 y4x)))
 (let ((?x441 (* (- 1.0) v1y)))
 (let ((?x421 (* ?x441 y3x)))
 (let ((?x303 (* (- 1.0) v1x)))
 (let ((?x28 (* ?x303 y4y)))
 (let ((?x402 (+ (+ (+ (+ (* v1x y3y) (* v1y y4x)) (* y3x y4y)) ?x28) ?x421)))
 (> (+ ?x402 ?x380) 0.0)))))))))
(assert
 (let ((?x388 (* (- 1.0) xx)))
 (let ((?x149 (* ?x388 y3y)))
 (> (+ (+ (+ y3y (* (- 1.0) xy)) (* xy y3x)) ?x149) 0.0))))
(assert
 (let ((?x388 (* (- 1.0) xx)))
 (let ((?x149 (* ?x388 y3y)))
 (let ((?x441 (* (- 1.0) v1y)))
 (let ((?x421 (* ?x441 y3x)))
 (let ((?x303 (* (- 1.0) v1x)))
 (let ((?x482 (* ?x303 xy)))
 (let ((?x188 (+ (+ (+ (+ (* v1x y3y) (* v1y xx)) (* xy y3x)) ?x482) ?x421)))
 (> (+ ?x188 ?x149) 0.0)))))))))
(assert
 (let ((?x441 (* (- 1.0) v1y)))
 (let ((?x421 (* ?x441 y3x)))
 (> (+ (+ (+ v1y (* (- 1.0) y3y)) (* v1x y3y)) ?x421) 0.0))))
(assert
 (let ((?x388 (* (- 1.0) xx)))
 (let ((?x283 (* ?x388 y4y)))
 (> (+ (+ (+ y4y (* (- 1.0) xy)) (* xy y4x)) ?x283) 0.0))))
(assert
 (let ((?x388 (* (- 1.0) xx)))
 (let ((?x283 (* ?x388 y4y)))
 (let ((?x441 (* (- 1.0) v1y)))
 (let ((?x490 (* ?x441 y4x)))
 (let ((?x303 (* (- 1.0) v1x)))
 (let ((?x482 (* ?x303 xy)))
 (let ((?x300 (+ (+ (+ (+ (* v1x y4y) (* v1y xx)) (* xy y4x)) ?x482) ?x490)))
 (> (+ ?x300 ?x283) 0.0)))))))))
(assert
 (let ((?x441 (* (- 1.0) v1y)))
 (let ((?x490 (* ?x441 y4x)))
 (> (+ (+ (+ v1y (* (- 1.0) y4y)) (* v1x y4y)) ?x490) 0.0))))
(assert
 (let ((?x374 (+ (+ (+ v1y (* (- 1.0) xy)) (* v1x xy)) (* (* (- 1.0) v1y) xx))))
(> ?x374 0.0)))
(check-sat)
